17	4	3
24	30	25	25	25	39	10	
0	0	0	0	0	8	9	9	4	2	1	3	2	3	4
6	5	7	7	2	10	6	7	3	6	9	3	5	8	14
8	6	9	5	6	1	1	9	7	9	3	2	6	12
5	7	10	5	9	3	7	4	1	8	10	1	17
9	9	9	10	9	3	10	10	2	10	1	3	7	15	17
175	9	8	4	5	3	8	9	1	1	10	2	9	17
200	7	9	2	5	2	1	6	9	4	1	2	10	17
250	4	9	2	9	7	5	2	6	1	10	1	17
150	7	9	10	1	8	3	6	2	3	4	1	11
25	9	2	2	6	2	6	4	1	7	4	2	17	17
250	7	1	8	3	1	10	1	10	1	2	1	13
150	4	7	9	6	10	3	3	5	1	6	1	17
3	6	6	1	5	5	8	10	7	3	10	2	16	17
6	2	5	6	3	7	1	3	3	2	6	1	16
8	2	4	1	10	6	3	1	10	4	8	1	17
2	4	4	1	8	3	5	8	4	4	9	1	17
0	0	0	0	0	6	4	1	8	8	2	0
